1338584
51, 81, 25, 3, 83, 20, 63, 44, 32, 95, 61, 85, 43, 6, 30, 103, 56, 92, 4, 79, 67, 74, 48, 17, 53, 100, 102, 58, 54, 104, 97, 91, 89, 11, 49, 66, 77, 9, 38, 41, 26, 37, 72, 57, 75, 27, 86, 31, 69, 70, 39, 14, 47, 71, 99, 105, 76, 50, 18, 88, 7, 65, 12, 36, 8, 28, 40, 68, 55, 78, 33, 108, 106, 60, 42, 62, 87, 73, 19, 96, 93, 13, 21, 80, 15, 23, 64, 22, 10, 109, 24, 90, 1, 5, 35, 101, 98, 82, 45, 34, 52, 29, 16, 107, 94, 46, 2, 59, 84
